H32O16 /home/patrick/xtalopt/H2O/1TPa_ne
   1.00000000000000     
     2.6749684876814497   -0.0004237718034418   -0.0000896831642487
     0.0047343000595336    5.3675256054375833    0.0004422458736399
     1.3215956279901040    1.3430948297288683    5.3604888538171354
   H    O 
    32    16
Direct
  0.9781274792144621  0.0196191305016220  0.6406895459757037
  0.5585187318669238  0.1452547050506851  0.8456326900506187
  0.7473713134234033  0.7833718648423843  0.5917945790469757
  0.3056713225087274  0.9263048769851053  0.9178634005558194
  0.4304473895891630  0.1462094399929732  0.5637587541757852
  0.6294140001222590  0.2493490896676090  0.0903977751169389
  0.6612786195149186  0.4993252395892298  0.0208127350350655
  0.1233302113470229  0.9381568545074240  0.3315288393857390
  0.5081595304194382  0.3325387134767820  0.6204918303479138
  0.9411709413420030  0.1840421755393959  0.3627535909186064
  0.0468402592652278  0.2035932981774211  0.8173882535145756
  0.4738998691097617  0.9291472223068628  0.7024568722730536
  0.6246152862349662  0.7846620025438892  0.3671995728347532
  0.4124937976673891  0.8317874956970136  0.1031878523160611
  0.5873946512492451  0.6272758465694441  0.2107189857244838
  0.0547336783546327  0.6602445401096362  0.0343488098721530
  0.4936318872243489  0.6539552059264400  0.8372098213853797
  0.0753808896480801  0.7020307430800544  0.3052042492761701
  0.0489939335421895  0.6741067300115994  0.7787168280279391
  0.6843818595115622  0.5538798529391159  0.5087767134470810
  0.4357502748108125  0.3401793338655685  0.3257943895214862
  0.1145100093636692  0.3755307210628527  0.1353167934498543
  0.5167831944781769  0.0403388055577688  0.3799490910117821
  0.1725405075327903  0.1101897651921979  0.1287826078604851
  0.2312880089837761  0.7959695157211227  0.5259288564436009
  0.7006798464634614  0.4275707979106634  0.7912603323418748
  0.0193330762412428  0.3439279164055017  0.5268264535280108
  0.2072137540651476  0.3790615346831413  0.9121742391321951
  0.1632538210623320  0.5419752305625993  0.5963922905158463
  0.8476051237788824  0.8917731998342847  0.8887987838979039
  0.7867598351317187  0.0063826191946130  0.0973866964021460
  0.0004450099829929  0.5026054710847674  0.2707819407206848
  0.1645462050684278  0.8548540653069819  0.6779034880483548
  0.6600100772920110  0.1060344881365731  0.6782035122972517
  0.0212657491513651  0.5348098900068815  0.9269044471627836
  0.7738600204080349  0.4159247762623927  0.4229257351563089
  0.8928789264633354  0.2255039058467256  0.1852460239723591
  0.5378165185161959  0.7807121035859591  0.9293656995656382
  0.4089542788396611  0.9750512518395074  0.1785110406491034
  0.2775215639370014  0.6608425604051618  0.4284384451397248
  0.9018611898291118  0.7400044812349937  0.1694270160146355
  0.5231355776709756  0.2834183815549844  0.9314807183186991
  0.3978134039217180  0.4809021169781086  0.1778226009806071
  0.2652189531885648  0.1641155930828700  0.4257305266715273
  0.1580925526391449  0.3538702292792721  0.6780264725399018
  0.6466766465724009  0.6002040042676642  0.6777630206984211
  0.0263879594477749  0.0398230832012820  0.9290165857456554
  0.7780302140035407  0.9152920104208798  0.4325071829323293
 
  0.00000000E+00  0.00000000E+00  0.00000000E+00
  0.00000000E+00  0.00000000E+00  0.00000000E+00
  0.00000000E+00  0.00000000E+00  0.00000000E+00
  0.00000000E+00  0.00000000E+00  0.00000000E+00
  0.00000000E+00  0.00000000E+00  0.00000000E+00
  0.00000000E+00  0.00000000E+00  0.00000000E+00
  0.00000000E+00  0.00000000E+00  0.00000000E+00
  0.00000000E+00  0.00000000E+00  0.00000000E+00
  0.00000000E+00  0.00000000E+00  0.00000000E+00
  0.00000000E+00  0.00000000E+00  0.00000000E+00
  0.00000000E+00  0.00000000E+00  0.00000000E+00
  0.00000000E+00  0.00000000E+00  0.00000000E+00
  0.00000000E+00  0.00000000E+00  0.00000000E+00
  0.00000000E+00  0.00000000E+00  0.00000000E+00
  0.00000000E+00  0.00000000E+00  0.00000000E+00
  0.00000000E+00  0.00000000E+00  0.00000000E+00
  0.00000000E+00  0.00000000E+00  0.00000000E+00
  0.00000000E+00  0.00000000E+00  0.00000000E+00
  0.00000000E+00  0.00000000E+00  0.00000000E+00
  0.00000000E+00  0.00000000E+00  0.00000000E+00
  0.00000000E+00  0.00000000E+00  0.00000000E+00
  0.00000000E+00  0.00000000E+00  0.00000000E+00
  0.00000000E+00  0.00000000E+00  0.00000000E+00
  0.00000000E+00  0.00000000E+00  0.00000000E+00
  0.00000000E+00  0.00000000E+00  0.00000000E+00
  0.00000000E+00  0.00000000E+00  0.00000000E+00
  0.00000000E+00  0.00000000E+00  0.00000000E+00
  0.00000000E+00  0.00000000E+00  0.00000000E+00
  0.00000000E+00  0.00000000E+00  0.00000000E+00
  0.00000000E+00  0.00000000E+00  0.00000000E+00
  0.00000000E+00  0.00000000E+00  0.00000000E+00
  0.00000000E+00  0.00000000E+00  0.00000000E+00
  0.00000000E+00  0.00000000E+00  0.00000000E+00
  0.00000000E+00  0.00000000E+00  0.00000000E+00
  0.00000000E+00  0.00000000E+00  0.00000000E+00
  0.00000000E+00  0.00000000E+00  0.00000000E+00
  0.00000000E+00  0.00000000E+00  0.00000000E+00
  0.00000000E+00  0.00000000E+00  0.00000000E+00
  0.00000000E+00  0.00000000E+00  0.00000000E+00
  0.00000000E+00  0.00000000E+00  0.00000000E+00
  0.00000000E+00  0.00000000E+00  0.00000000E+00
  0.00000000E+00  0.00000000E+00  0.00000000E+00
  0.00000000E+00  0.00000000E+00  0.00000000E+00
  0.00000000E+00  0.00000000E+00  0.00000000E+00
  0.00000000E+00  0.00000000E+00  0.00000000E+00
  0.00000000E+00  0.00000000E+00  0.00000000E+00
  0.00000000E+00  0.00000000E+00  0.00000000E+00
  0.00000000E+00  0.00000000E+00  0.00000000E+00
